(set-logic ALL)
(declare-fun it4 () Int)
(declare-fun it3 () Int)
(declare-fun i1 () Int)
(declare-fun it9 () Int)
(declare-fun it10 () Int)
(declare-fun it11 () Int)
(declare-fun it17 () Int)
(assert (and (= (+ i1 (- 3)) 0) (> (+ it3 1) 0) (> (+ it4 1) 0)))
(assert (= (+ it9 (- 2)) 0))
(assert (= (+ it10 (* it4 (- 1))) 0))
(assert (= (+ it11 (* it3 (- 1))) 0))
(assert (let ((a!1 (+ (+ 0 (+ it10 it17))
              (* (+ 0 it11) (exp 2 (+ it17 (- 1))) (+ 0 (- 1)))
              (+ 0 (- 1)))))
  (and (>= (+ it9 (- 2)) 0)
       (> (+ it11 (- 2)) 0)
       (> (+ it10 (* it11 (- 1))) 0)
       (>= (+ (* it9 (- 1)) 2) 0)
       (> a!1 (+ 0 0))
       (>= (+ it17 (- 1)) 0))))
(check-sat)
